
******************************************************************************
This program contains Ipopt, a library for large-scale nonlinear optimization.
 Ipopt is released as open source code under the Eclipse Public License (EPL).
         For more information visit http://projects.coin-or.org/Ipopt
******************************************************************************

This is Ipopt version 3.12.6, running with linear solver ma57.

Number of nonzeros in equality constraint Jacobian...:        0
Number of nonzeros in inequality constraint Jacobian.:    19699
Number of nonzeros in Lagrangian Hessian.............:    10094

Total number of variables............................:      197
                     variables with only lower bounds:      196
                variables with lower and upper bounds:        1
                     variables with only upper bounds:        0
Total number of equality constraints.................:        0
Total number of inequality constraints...............:     5048
        inequality constraints with only lower bounds:       98
   inequality constraints with lower and upper bounds:        0
        inequality constraints with only upper bounds:     4950

iter    objective    inf_pr   inf_du lg(mu)  ||d||  lg(rg) alpha_du alpha_pr  ls
   0 -4.9499951e-03 0.00e+00 1.47e+00  -1.0 0.00e+00    -  0.00e+00 0.00e+00   0
   1 -1.7686594e-02 0.00e+00 1.35e+00  -1.0 1.51e-01    -  3.60e-01 2.51e-01f  1
   2 -9.1296786e-02 0.00e+00 1.29e+02  -1.0 2.96e-01    -  6.89e-02 9.90e-01f  1
   3 -1.1006965e-01 2.52e-05 1.12e+02  -1.0 1.11e+00    -  1.88e-01 1.37e-01f  1
   4 -2.2858113e-01 0.00e+00 3.37e+01  -1.0 2.67e-01    -  3.83e-01 1.00e+00f  1
   5 -2.5256383e-01 0.00e+00 1.02e+01  -1.0 3.44e-01    -  3.64e-01 1.00e+00f  1
   6 -2.1433966e-01 0.00e+00 5.54e+00  -1.0 6.14e-01    -  4.74e-01 3.94e-01h  1
   7 -2.1249197e-01 0.00e+00 9.68e-01  -1.0 1.82e-01    -  1.00e+00 1.00e+00h  1
   8 -2.1472131e-01 0.00e+00 1.48e-01  -1.7 1.51e-02    -  1.00e+00 1.00e+00h  1
   9 -2.3722957e-01 0.00e+00 8.19e-01  -2.5 6.05e-02    -  9.17e-01 1.00e+00h  1
iter    objective    inf_pr   inf_du lg(mu)  ||d||  lg(rg) alpha_du alpha_pr  ls
  10 -5.0012915e-01 1.47e-01 5.08e-01  -2.5 9.93e-01    -  3.46e-01 5.45e-01h  1
  11 -4.9431804e-01 5.55e-02 4.79e-02  -2.5 2.31e-01    -  1.00e+00 6.98e-01h  1
  12 -4.5376984e-01 0.00e+00 1.13e-03  -2.5 6.86e-02    -  1.00e+00 1.00e+00h  1
  13 -4.9815506e-01 7.11e-03 4.49e-01  -3.8 5.14e-01    -  5.62e-01 2.60e-01h  1
  14 -5.4717220e-01 1.96e-02 4.33e-01  -3.8 5.04e-01    -  6.10e-01 3.81e-01h  1
  15 -5.6911079e-01 7.16e-03 3.06e-01  -3.8 2.13e-01    -  1.00e+00 5.65e-01h  1
  16 -5.9331660e-01 2.66e-03 1.10e-01  -3.8 4.83e-01  -2.0 2.53e-01 6.35e-01h  1
  17 -5.9831317e-01 3.07e-02 7.27e-02  -3.8 1.96e-01  -1.6 5.81e-01 2.74e-01h  1
  18 -6.0544896e-01 0.00e+00 6.77e-03  -3.8 1.11e-01    -  1.00e+00 1.00e+00h  1
  19 -6.0655972e-01 1.08e-02 3.17e-02  -3.8 3.83e-01  -2.1 1.14e-01 3.21e-01h  1
iter    objective    inf_pr   inf_du lg(mu)  ||d||  lg(rg) alpha_du alpha_pr  ls
  20 -6.0657304e-01 0.00e+00 2.83e-03  -3.8 1.21e-01  -2.5 1.00e+00 9.16e-01h  1
  21 -6.0778992e-01 8.46e-03 5.17e-02  -3.8 2.60e-01    -  8.31e-02 3.83e-01h  1
  22 -6.1094924e-01 3.09e-03 2.77e-02  -3.8 3.02e-01  -3.0 2.43e-01 3.27e-01h  1
  23 -6.1354603e-01 6.77e-03 3.21e-02  -3.8 1.90e-01  -2.6 4.00e-01 6.50e-01h  1
  24 -6.1932471e-01 5.56e-03 3.64e-02  -3.8 1.56e-01  -1.3 1.00e+00 6.40e-01h  1
  25 -6.1799141e-01 0.00e+00 3.68e-03  -3.8 7.16e-02  -1.7 1.00e+00 1.00e+00h  1
  26 -6.1946916e-01 1.28e-03 9.51e-03  -3.8 1.18e-01    -  5.46e-01 2.69e-01h  1
  27 -6.2289210e-01 1.03e-03 1.71e-03  -3.8 7.44e-02    -  1.00e+00 1.00e+00f  1
  28 -6.2218947e-01 0.00e+00 2.93e-05  -3.8 3.40e-02    -  1.00e+00 1.00e+00h  1
  29 -6.2962328e-01 6.49e-04 3.25e-03  -5.7 9.16e-02  -2.2 6.95e-01 7.32e-01h  1
iter    objective    inf_pr   inf_du lg(mu)  ||d||  lg(rg) alpha_du alpha_pr  ls
  30 -6.3191878e-01 7.50e-05 3.73e-03  -5.7 1.45e-02  -0.9 9.54e-01 9.93e-01h  1
  31 -6.3399838e-01 1.06e-03 3.32e-03  -5.7 1.33e-01  -1.4 2.41e-01 3.77e-01h  1
  32 -6.3550562e-01 4.54e-03 1.82e-02  -5.7 2.63e-01  -1.8 9.76e-04 3.27e-01f  1
  33 -6.3606043e-01 6.10e-03 5.43e-02  -5.7 6.10e+01  -1.4 4.33e-03 8.97e-04f  1
  34 -6.3606300e-01 6.10e-03 4.42e-02  -5.7 1.09e+01  -1.0 1.60e-02 1.19e-05h  1
  35 -6.3632745e-01 4.20e-03 5.25e-02  -5.7 4.36e-02  -1.5 1.00e+00 3.32e-01f  1
  36 -6.3681737e-01 3.08e-03 2.26e-03  -5.7 7.13e-02  -1.9 7.67e-01 9.74e-01h  1
  37 -6.3689634e-01 9.71e-04 5.62e-04  -5.7 4.58e-02    -  1.00e+00 1.00e+00h  1
  38 -6.3675657e-01 2.35e-05 1.84e-05  -5.7 3.40e-02    -  1.00e+00 1.00e+00h  1
  39 -6.3674809e-01 0.00e+00 1.53e-09  -5.7 1.12e-03    -  1.00e+00 1.00e+00h  1
iter    objective    inf_pr   inf_du lg(mu)  ||d||  lg(rg) alpha_du alpha_pr  ls
  40 -6.3693562e-01 7.73e-06 1.57e-06  -8.6 4.29e-03    -  9.83e-01 9.83e-01h  1
  41 -6.3693643e-01 0.00e+00 6.58e-08  -8.6 1.21e-02    -  1.00e+00 1.00e+00h  1
  42 -6.3693652e-01 0.00e+00 2.72e-02  -8.6 2.09e-01    -  9.88e-01 8.01e-01h  1
  43 -6.3693648e-01 0.00e+00 3.43e-10  -8.6 2.67e-02    -  1.00e+00 1.00e+00h  1

Number of Iterations....: 43

                                   (scaled)                 (unscaled)
Objective...............:  -6.3693648175294659e-01   -6.3693648175294659e-01
Dual infeasibility......:   3.4264766378748401e-10    3.4264766378748401e-10
Constraint violation....:   0.0000000000000000e+00    0.0000000000000000e+00
Complementarity.........:   2.5378043707310828e-09    2.5378043707310828e-09
Overall NLP error.......:   2.5378043707310828e-09    2.5378043707310828e-09


Number of objective function evaluations             = 44
Number of objective gradient evaluations             = 44
Number of equality constraint evaluations            = 0
Number of inequality constraint evaluations          = 44
Number of equality constraint Jacobian evaluations   = 0
Number of inequality constraint Jacobian evaluations = 44
Number of Lagrangian Hessian evaluations             = 43
Total CPU secs in IPOPT (w/o function evaluations)   =      0.270
Total CPU secs in NLP function evaluations           =      0.150

EXIT: Optimal Solution Found.

************************ CUTEst statistics ************************


 Package used            :  IPOPT
 Problem                 :  NGONE     
 # variables             =             200
 # constraints           =            5048
 # objective functions   =        0.8900000E+02
 # objective gradients   =        0.4500000E+02
 # objective Hessians    =        0.4400000E+02
 # Hessian-vector prdct  =        0.0000000E+00
 # constraints functions =        0.9000000E+02
 # constraints gradients =        0.4600000E+02
 # constraints Hessians  =        0.4400000E+02
 Exit code               =               0
 Final f                 =  -0.6369365E+00
 Set up time             =            0.10 seconds
 Solve time              =            0.57 seconds


******************************************************************

System Time =       0.3970000148 s.
